p edge 150 2235
e 1 2
e 1 6
e 1 19
e 1 34
e 1 35
e 1 37
e 1 42
e 1 52
e 1 54
e 1 58
e 1 59
e 1 60
e 1 63
e 1 64
e 1 85
e 1 91
e 1 101
e 1 109
e 1 113
e 1 119
e 1 131
e 1 134
e 1 140
e 1 142
e 1 143
e 2 10
e 2 12
e 2 15
e 2 19
e 2 22
e 2 31
e 2 36
e 2 41
e 2 44
e 2 45
e 2 52
e 2 68
e 2 79
e 2 80
e 2 101
e 2 106
e 2 112
e 2 113
e 2 115
e 2 117
e 2 120
e 2 125
e 2 133
e 2 134
e 2 141
e 2 144
e 2 146
e 3 8
e 3 10
e 3 17
e 3 29
e 3 34
e 3 35
e 3 39
e 3 41
e 3 42
e 3 45
e 3 47
e 3 49
e 3 54
e 3 59
e 3 64
e 3 70
e 3 71
e 3 83
e 3 86
e 3 88
e 3 93
e 3 94
e 3 95
e 3 106
e 3 108
e 3 113
e 3 133
e 3 140
e 3 148
e 3 149
e 4 12
e 4 14
e 4 23
e 4 27
e 4 39
e 4 43
e 4 45
e 4 52
e 4 66
e 4 68
e 4 69
e 4 72
e 4 79
e 4 80
e 4 83
e 4 107
e 4 108
e 4 110
e 4 112
e 4 114
e 4 116
e 4 122
e 4 135
e 4 141
e 4 143
e 4 145
e 4 150
e 5 9
e 5 11
e 5 13
e 5 18
e 5 19
e 5 20
e 5 24
e 5 25
e 5 27
e 5 28
e 5 33
e 5 34
e 5 40
e 5 47
e 5 48
e 5 57
e 5 62
e 5 66
e 5 71
e 5 76
e 5 78
e 5 83
e 5 85
e 5 86
e 5 89
e 5 92
e 5 99
e 5 100
e 5 115
e 5 123
e 5 125
e 5 127
e 5 133
e 5 134
e 5 140
e 6 12
e 6 13
e 6 14
e 6 15
e 6 17
e 6 22
e 6 28
e 6 35
e 6 42
e 6 43
e 6 45
e 6 48
e 6 49
e 6 51
e 6 53
e 6 54
e 6 55
e 6 60
e 6 62
e 6 66
e 6 69
e 6 70
e 6 73
e 6 74
e 6 86
e 6 90
e 6 92
e 6 98
e 6 100
e 6 106
e 6 109
e 6 110
e 6 115
e 6 118
e 6 119
e 6 120
e 6 124
e 6 125
e 6 131
e 6 134
e 6 136
e 6 137
e 6 139
e 6 140
e 6 141
e 6 143
e 7 8
e 7 17
e 7 29
e 7 35
e 7 40
e 7 42
e 7 51
e 7 53
e 7 70
e 7 72
e 7 73
e 7 74
e 7 81
e 7 88
e 7 97
e 7 101
e 7 104
e 7 112
e 7 113
e 7 140
e 7 142
e 7 147
e 8 25
e 8 26
e 8 41
e 8 48
e 8 51
e 8 57
e 8 59
e 8 61
e 8 68
e 8 75
e 8 76
e 8 84
e 8 100
e 8 103
e 8 114
e 8 119
e 8 126
e 8 128
e 8 135
e 8 140
e 8 144
e 9 23
e 9 24
e 9 41
e 9 42
e 9 54
e 9 62
e 9 63
e 9 66
e 9 68
e 9 75
e 9 76
e 9 77
e 9 78
e 9 79
e 9 85
e 9 87
e 9 99
e 9 100
e 9 107
e 9 109
e 9 111
e 9 114
e 9 139
e 9 142
e 9 143
e 9 144
e 10 14
e 10 16
e 10 19
e 10 20
e 10 37
e 10 45
e 10 53
e 10 54
e 10 56
e 10 65
e 10 81
e 10 82
e 10 91
e 10 95
e 10 105
e 10 109
e 10 123
e 10 127
e 10 133
e 10 135
e 10 140
e 10 141
e 10 144
e 11 17
e 11 22
e 11 26
e 11 29
e 11 30
e 11 31
e 11 43
e 11 51
e 11 60
e 11 76
e 11 79
e 11 82
e 11 88
e 11 90
e 11 91
e 11 94
e 11 95
e 11 101
e 11 102
e 11 112
e 11 119
e 11 121
e 11 131
e 11 134
e 11 135
e 11 137
e 11 139
e 11 140
e 11 141
e 12 13
e 12 18
e 12 19
e 12 23
e 12 30
e 12 40
e 12 41
e 12 47
e 12 57
e 12 66
e 12 71
e 12 81
e 12 85
e 12 88
e 12 94
e 12 96
e 12 99
e 12 101
e 12 103
e 12 112
e 12 137
e 12 143
e 12 147
e 12 149
e 13 22
e 13 31
e 13 36
e 13 48
e 13 58
e 13 62
e 13 64
e 13 66
e 13 68
e 13 69
e 13 72
e 13 74
e 13 79
e 13 80
e 13 83
e 13 91
e 13 104
e 13 119
e 13 122
e 13 124
e 13 128
e 13 131
e 13 144
e 14 15
e 14 16
e 14 17
e 14 19
e 14 37
e 14 40
e 14 47
e 14 70
e 14 74
e 14 79
e 14 81
e 14 97
e 14 107
e 14 111
e 14 112
e 14 116
e 14 124
e 14 128
e 14 129
e 14 132
e 14 135
e 14 136
e 14 137
e 14 143
e 14 145
e 15 19
e 15 23
e 15 29
e 15 38
e 15 39
e 15 46
e 15 51
e 15 57
e 15 67
e 15 68
e 15 69
e 15 70
e 15 73
e 15 81
e 15 83
e 15 84
e 15 92
e 15 100
e 15 104
e 15 108
e 15 109
e 15 110
e 15 118
e 15 120
e 15 131
e 15 135
e 15 136
e 15 140
e 15 144
e 16 17
e 16 23
e 16 24
e 16 27
e 16 43
e 16 45
e 16 46
e 16 51
e 16 56
e 16 61
e 16 66
e 16 71
e 16 79
e 16 95
e 16 98
e 16 100
e 16 105
e 16 107
e 16 113
e 16 116
e 16 120
e 16 123
e 16 127
e 16 129
e 16 138
e 16 149
e 17 20
e 17 26
e 17 27
e 17 53
e 17 58
e 17 60
e 17 71
e 17 73
e 17 74
e 17 76
e 17 78
e 17 80
e 17 90
e 17 97
e 17 100
e 17 104
e 17 105
e 17 110
e 17 115
e 17 125
e 17 127
e 17 128
e 17 135
e 17 136
e 17 137
e 17 143
e 17 147
e 17 149
e 18 28
e 18 30
e 18 35
e 18 37
e 18 38
e 18 39
e 18 41
e 18 43
e 18 55
e 18 60
e 18 62
e 18 65
e 18 73
e 18 75
e 18 79
e 18 96
e 18 103
e 18 111
e 18 112
e 18 118
e 18 125
e 18 127
e 18 133
e 18 140
e 18 141
e 18 143
e 18 145
e 18 149
e 19 24
e 19 30
e 19 33
e 19 37
e 19 41
e 19 48
e 19 55
e 19 59
e 19 63
e 19 71
e 19 75
e 19 77
e 19 80
e 19 82
e 19 88
e 19 92
e 19 95
e 19 96
e 19 107
e 19 125
e 19 131
e 19 136
e 19 139
e 19 141
e 19 143
e 19 148
e 19 150
e 20 22
e 20 35
e 20 42
e 20 61
e 20 67
e 20 74
e 20 75
e 20 77
e 20 97
e 20 98
e 20 108
e 20 129
e 20 141
e 20 142
e 20 143
e 21 23
e 21 24
e 21 27
e 21 41
e 21 44
e 21 50
e 21 57
e 21 61
e 21 64
e 21 67
e 21 68
e 21 69
e 21 72
e 21 74
e 21 77
e 21 78
e 21 83
e 21 90
e 21 91
e 21 93
e 21 95
e 21 101
e 21 102
e 21 104
e 21 111
e 21 115
e 21 117
e 21 118
e 21 119
e 21 125
e 21 144
e 22 23
e 22 24
e 22 26
e 22 34
e 22 35
e 22 36
e 22 46
e 22 49
e 22 50
e 22 54
e 22 55
e 22 56
e 22 79
e 22 90
e 22 94
e 22 95
e 22 98
e 22 99
e 22 105
e 22 112
e 22 116
e 22 125
e 22 145
e 22 146
e 23 35
e 23 53
e 23 59
e 23 60
e 23 71
e 23 73
e 23 74
e 23 78
e 23 84
e 23 89
e 23 98
e 23 99
e 23 115
e 23 119
e 23 122
e 23 128
e 23 129
e 23 130
e 23 139
e 23 142
e 23 148
e 23 150
e 24 32
e 24 35
e 24 36
e 24 49
e 24 56
e 24 59
e 24 61
e 24 72
e 24 75
e 24 77
e 24 79
e 24 85
e 24 88
e 24 89
e 24 98
e 24 102
e 24 108
e 24 112
e 24 114
e 24 125
e 24 131
e 24 134
e 24 140
e 24 141
e 24 143
e 25 30
e 25 40
e 25 44
e 25 52
e 25 56
e 25 57
e 25 60
e 25 62
e 25 63
e 25 69
e 25 72
e 25 75
e 25 79
e 25 80
e 25 86
e 25 92
e 25 95
e 25 97
e 25 99
e 25 107
e 25 111
e 25 112
e 25 126
e 25 130
e 25 145
e 25 148
e 25 150
e 26 29
e 26 41
e 26 42
e 26 47
e 26 52
e 26 58
e 26 60
e 26 63
e 26 85
e 26 92
e 26 93
e 26 94
e 26 99
e 26 106
e 26 110
e 26 113
e 26 117
e 26 122
e 26 124
e 26 129
e 26 130
e 26 138
e 26 149
e 27 32
e 27 37
e 27 39
e 27 60
e 27 71
e 27 93
e 27 94
e 27 102
e 27 112
e 27 117
e 27 124
e 27 138
e 27 143
e 28 38
e 28 39
e 28 45
e 28 50
e 28 52
e 28 53
e 28 55
e 28 62
e 28 66
e 28 70
e 28 72
e 28 73
e 28 77
e 28 78
e 28 80
e 28 90
e 28 91
e 28 95
e 28 101
e 28 104
e 28 105
e 28 115
e 28 118
e 28 122
e 28 123
e 28 124
e 28 133
e 28 138
e 28 139
e 28 142
e 28 143
e 28 148
e 29 36
e 29 45
e 29 51
e 29 54
e 29 55
e 29 56
e 29 61
e 29 62
e 29 74
e 29 76
e 29 81
e 29 83
e 29 87
e 29 93
e 29 96
e 29 100
e 29 104
e 29 105
e 29 108
e 29 114
e 29 126
e 29 127
e 29 129
e 29 130
e 29 131
e 29 136
e 29 140
e 29 148
e 30 31
e 30 33
e 30 42
e 30 49
e 30 50
e 30 54
e 30 73
e 30 75
e 30 90
e 30 93
e 30 100
e 30 109
e 30 111
e 30 112
e 30 113
e 30 116
e 30 120
e 30 123
e 30 125
e 30 126
e 30 130
e 30 132
e 30 142
e 30 150
e 31 38
e 31 41
e 31 45
e 31 49
e 31 53
e 31 56
e 31 59
e 31 60
e 31 64
e 31 65
e 31 68
e 31 73
e 31 87
e 31 89
e 31 93
e 31 99
e 31 111
e 31 112
e 31 114
e 31 118
e 31 122
e 31 125
e 31 132
e 31 135
e 31 138
e 31 139
e 31 141
e 31 143
e 31 147
e 32 34
e 32 36
e 32 48
e 32 56
e 32 60
e 32 61
e 32 64
e 32 66
e 32 71
e 32 75
e 32 78
e 32 79
e 32 80
e 32 108
e 32 112
e 32 113
e 32 125
e 32 131
e 32 136
e 32 137
e 33 35
e 33 41
e 33 43
e 33 51
e 33 61
e 33 64
e 33 67
e 33 70
e 33 79
e 33 85
e 33 87
e 33 91
e 33 98
e 33 99
e 33 105
e 33 110
e 33 120
e 33 125
e 33 130
e 33 133
e 33 141
e 33 147
e 34 36
e 34 38
e 34 46
e 34 49
e 34 55
e 34 57
e 34 58
e 34 60
e 34 63
e 34 92
e 34 94
e 34 99
e 34 109
e 34 113
e 34 118
e 34 122
e 34 127
e 34 128
e 34 146
e 34 148
e 34 149
e 35 40
e 35 43
e 35 44
e 35 46
e 35 47
e 35 55
e 35 57
e 35 59
e 35 62
e 35 63
e 35 81
e 35 83
e 35 87
e 35 92
e 35 94
e 35 95
e 35 97
e 35 104
e 35 107
e 35 111
e 35 117
e 35 120
e 35 124
e 35 130
e 35 143
e 35 145
e 35 147
e 35 149
e 36 37
e 36 41
e 36 45
e 36 57
e 36 63
e 36 64
e 36 65
e 36 66
e 36 71
e 36 73
e 36 75
e 36 80
e 36 82
e 36 85
e 36 86
e 36 88
e 36 89
e 36 95
e 36 96
e 36 97
e 36 98
e 36 100
e 36 101
e 36 105
e 36 106
e 36 107
e 36 111
e 36 115
e 36 120
e 36 126
e 36 129
e 36 147
e 37 39
e 37 44
e 37 61
e 37 66
e 37 68
e 37 69
e 37 83
e 37 89
e 37 90
e 37 97
e 37 102
e 37 106
e 37 107
e 37 108
e 37 109
e 37 117
e 37 118
e 37 119
e 37 120
e 37 121
e 37 125
e 37 127
e 37 130
e 37 131
e 37 132
e 37 138
e 37 139
e 37 144
e 38 39
e 38 41
e 38 44
e 38 52
e 38 54
e 38 57
e 38 58
e 38 65
e 38 75
e 38 77
e 38 86
e 38 90
e 38 110
e 38 112
e 38 114
e 38 122
e 38 125
e 38 131
e 38 147
e 38 148
e 38 149
e 39 42
e 39 43
e 39 46
e 39 49
e 39 51
e 39 52
e 39 57
e 39 61
e 39 62
e 39 66
e 39 67
e 39 69
e 39 77
e 39 86
e 39 87
e 39 91
e 39 99
e 39 100
e 39 104
e 39 105
e 39 106
e 39 114
e 39 117
e 39 119
e 39 121
e 39 125
e 39 127
e 39 132
e 39 135
e 39 136
e 39 147
e 39 148
e 40 41
e 40 70
e 40 73
e 40 76
e 40 77
e 40 78
e 40 83
e 40 84
e 40 86
e 40 89
e 40 92
e 40 95
e 40 96
e 40 97
e 40 103
e 40 106
e 40 118
e 40 141
e 40 142
e 40 143
e 40 150
e 41 50
e 41 60
e 41 71
e 41 79
e 41 82
e 41 96
e 41 97
e 41 103
e 41 111
e 41 114
e 41 115
e 41 119
e 41 120
e 41 130
e 41 131
e 41 132
e 41 138
e 42 54
e 42 65
e 42 90
e 42 93
e 42 95
e 42 97
e 42 103
e 42 106
e 42 110
e 42 112
e 42 114
e 42 115
e 42 130
e 42 136
e 42 140
e 42 144
e 42 146
e 42 147
e 42 148
e 42 150
e 43 49
e 43 50
e 43 58
e 43 63
e 43 64
e 43 65
e 43 69
e 43 72
e 43 78
e 43 80
e 43 87
e 43 94
e 43 96
e 43 99
e 43 101
e 43 104
e 43 116
e 43 117
e 43 137
e 43 142
e 43 147
e 44 64
e 44 67
e 44 72
e 44 77
e 44 80
e 44 85
e 44 93
e 44 96
e 44 107
e 44 110
e 44 111
e 44 118
e 44 131
e 44 135
e 45 50
e 45 54
e 45 66
e 45 67
e 45 76
e 45 80
e 45 91
e 45 102
e 45 111
e 45 112
e 45 116
e 45 121
e 45 122
e 45 128
e 45 130
e 45 133
e 45 136
e 45 138
e 45 146
e 45 149
e 46 47
e 46 48
e 46 52
e 46 55
e 46 62
e 46 64
e 46 67
e 46 75
e 46 79
e 46 101
e 46 104
e 46 108
e 46 109
e 46 112
e 46 114
e 46 117
e 46 120
e 46 121
e 46 124
e 46 128
e 46 129
e 46 139
e 46 144
e 47 50
e 47 62
e 47 66
e 47 70
e 47 75
e 47 79
e 47 81
e 47 85
e 47 89
e 47 98
e 47 105
e 47 110
e 47 115
e 47 123
e 47 140
e 47 146
e 47 147
e 48 51
e 48 55
e 48 57
e 48 64
e 48 66
e 48 67
e 48 75
e 48 92
e 48 96
e 48 97
e 48 98
e 48 101
e 48 105
e 48 112
e 48 115
e 48 116
e 48 122
e 48 126
e 48 131
e 48 133
e 48 140
e 48 142
e 48 144
e 48 145
e 48 147
e 49 64
e 49 65
e 49 75
e 49 80
e 49 81
e 49 83
e 49 87
e 49 96
e 49 111
e 49 116
e 49 119
e 49 130
e 49 131
e 49 135
e 49 137
e 49 138
e 49 140
e 49 146
e 49 148
e 50 53
e 50 54
e 50 73
e 50 75
e 50 79
e 50 82
e 50 89
e 50 94
e 50 103
e 50 109
e 50 112
e 50 126
e 50 132
e 50 141
e 50 147
e 51 55
e 51 56
e 51 61
e 51 62
e 51 83
e 51 84
e 51 87
e 51 95
e 51 98
e 51 105
e 51 113
e 51 114
e 51 122
e 51 125
e 51 136
e 51 141
e 51 144
e 51 148
e 52 53
e 52 58
e 52 59
e 52 61
e 52 68
e 52 72
e 52 73
e 52 74
e 52 79
e 52 86
e 52 97
e 52 102
e 52 106
e 52 113
e 52 119
e 52 125
e 52 132
e 52 136
e 52 140
e 52 149
e 53 56
e 53 57
e 53 74
e 53 77
e 53 84
e 53 91
e 53 93
e 53 98
e 53 101
e 53 105
e 53 109
e 53 116
e 53 121
e 53 122
e 53 131
e 53 136
e 53 146
e 53 149
e 53 150
e 54 59
e 54 62
e 54 68
e 54 70
e 54 72
e 54 75
e 54 77
e 54 81
e 54 87
e 54 97
e 54 101
e 54 103
e 54 105
e 54 108
e 54 122
e 54 124
e 54 125
e 54 134
e 54 140
e 55 56
e 55 64
e 55 68
e 55 76
e 55 78
e 55 81
e 55 82
e 55 99
e 55 108
e 55 111
e 55 119
e 55 128
e 55 129
e 55 145
e 55 149
e 56 60
e 56 67
e 56 69
e 56 71
e 56 81
e 56 88
e 56 89
e 56 96
e 56 97
e 56 104
e 56 106
e 56 110
e 56 114
e 56 126
e 56 127
e 56 129
e 56 130
e 56 132
e 56 137
e 56 139
e 56 148
e 57 58
e 57 59
e 57 64
e 57 77
e 57 78
e 57 82
e 57 96
e 57 112
e 57 148
e 58 65
e 58 66
e 58 71
e 58 74
e 58 77
e 58 82
e 58 99
e 58 110
e 58 113
e 58 116
e 58 118
e 58 119
e 58 126
e 58 127
e 58 128
e 58 131
e 58 133
e 58 136
e 58 137
e 58 147
e 58 148
e 59 61
e 59 64
e 59 68
e 59 72
e 59 73
e 59 82
e 59 84
e 59 85
e 59 90
e 59 92
e 59 93
e 59 94
e 59 102
e 59 103
e 59 104
e 59 111
e 59 114
e 59 116
e 59 119
e 59 128
e 59 132
e 59 136
e 59 139
e 59 140
e 59 143
e 59 147
e 60 67
e 60 69
e 60 72
e 60 73
e 60 87
e 60 89
e 60 109
e 60 111
e 60 116
e 60 117
e 60 121
e 60 127
e 60 129
e 60 139
e 60 142
e 60 145
e 60 148
e 61 63
e 61 66
e 61 69
e 61 71
e 61 72
e 61 73
e 61 74
e 61 75
e 61 78
e 61 81
e 61 97
e 61 100
e 61 101
e 61 109
e 61 114
e 61 125
e 61 126
e 61 128
e 61 132
e 61 133
e 61 137
e 61 138
e 61 140
e 61 145
e 61 146
e 61 149
e 62 64
e 62 75
e 62 80
e 62 81
e 62 91
e 62 92
e 62 93
e 62 98
e 62 100
e 62 101
e 62 103
e 62 106
e 62 107
e 62 115
e 62 116
e 62 118
e 62 121
e 62 124
e 62 126
e 62 127
e 62 128
e 62 129
e 62 130
e 62 142
e 62 143
e 63 65
e 63 69
e 63 77
e 63 83
e 63 89
e 63 91
e 63 92
e 63 95
e 63 101
e 63 103
e 63 105
e 63 108
e 63 112
e 63 116
e 63 119
e 63 124
e 63 139
e 63 140
e 63 150
e 64 65
e 64 66
e 64 68
e 64 84
e 64 85
e 64 93
e 64 95
e 64 99
e 64 100
e 64 105
e 64 109
e 64 112
e 64 113
e 64 115
e 64 118
e 64 119
e 64 124
e 64 128
e 64 130
e 64 133
e 64 138
e 64 139
e 64 145
e 65 74
e 65 76
e 65 77
e 65 85
e 65 91
e 65 94
e 65 98
e 65 110
e 65 117
e 65 125
e 65 128
e 65 129
e 65 133
e 65 140
e 65 149
e 66 69
e 66 70
e 66 71
e 66 76
e 66 87
e 66 89
e 66 128
e 66 131
e 66 132
e 66 136
e 66 137
e 66 143
e 66 146
e 66 150
e 67 79
e 67 81
e 67 84
e 67 86
e 67 94
e 67 97
e 67 99
e 67 102
e 67 109
e 67 114
e 67 121
e 67 129
e 67 130
e 67 131
e 67 136
e 67 137
e 67 139
e 67 147
e 67 149
e 68 69
e 68 70
e 68 77
e 68 78
e 68 79
e 68 82
e 68 85
e 68 89
e 68 91
e 68 98
e 68 103
e 68 105
e 68 107
e 68 112
e 68 115
e 68 122
e 68 131
e 68 142
e 68 146
e 68 150
e 69 70
e 69 72
e 69 75
e 69 80
e 69 85
e 69 105
e 69 114
e 69 116
e 69 117
e 69 120
e 69 124
e 69 127
e 69 131
e 69 140
e 69 141
e 70 72
e 70 74
e 70 79
e 70 81
e 70 89
e 70 94
e 70 97
e 70 98
e 70 105
e 70 108
e 70 121
e 70 124
e 70 131
e 70 141
e 70 142
e 71 81
e 71 87
e 71 88
e 71 91
e 71 93
e 71 100
e 71 101
e 71 106
e 71 114
e 71 115
e 71 118
e 71 119
e 71 123
e 71 126
e 71 131
e 71 132
e 71 135
e 71 139
e 71 145
e 71 146
e 72 73
e 72 74
e 72 76
e 72 77
e 72 79
e 72 80
e 72 83
e 72 86
e 72 93
e 72 101
e 72 104
e 72 105
e 72 106
e 72 108
e 72 112
e 72 126
e 72 127
e 72 128
e 72 129
e 72 131
e 72 132
e 72 136
e 72 138
e 72 143
e 73 76
e 73 77
e 73 84
e 73 85
e 73 88
e 73 90
e 73 99
e 73 107
e 73 116
e 73 118
e 73 130
e 73 134
e 73 135
e 73 147
e 73 150
e 74 78
e 74 92
e 74 101
e 74 104
e 74 108
e 74 113
e 74 114
e 74 123
e 74 127
e 74 134
e 75 77
e 75 93
e 75 100
e 75 117
e 75 118
e 75 123
e 75 124
e 75 125
e 75 128
e 75 130
e 75 138
e 75 141
e 75 145
e 76 78
e 76 79
e 76 80
e 76 81
e 76 88
e 76 90
e 76 93
e 76 94
e 76 102
e 76 105
e 76 111
e 76 112
e 76 121
e 76 124
e 76 128
e 76 136
e 76 137
e 76 145
e 76 150
e 77 78
e 77 81
e 77 82
e 77 84
e 77 90
e 77 93
e 77 95
e 77 98
e 77 105
e 77 108
e 77 122
e 77 143
e 78 79
e 78 82
e 78 83
e 78 86
e 78 90
e 78 91
e 78 97
e 78 98
e 78 107
e 78 117
e 78 118
e 78 120
e 78 121
e 78 143
e 78 144
e 78 148
e 79 91
e 79 92
e 79 113
e 79 120
e 79 122
e 79 127
e 79 128
e 79 129
e 79 145
e 79 148
e 80 81
e 80 85
e 80 94
e 80 95
e 80 101
e 80 102
e 80 104
e 80 106
e 80 110
e 80 112
e 80 115
e 80 119
e 80 125
e 80 131
e 80 135
e 80 138
e 80 140
e 80 142
e 80 147
e 81 86
e 81 89
e 81 91
e 81 104
e 81 105
e 81 106
e 81 110
e 81 119
e 81 134
e 81 141
e 81 142
e 81 150
e 82 83
e 82 88
e 82 89
e 82 105
e 82 107
e 82 109
e 82 115
e 82 116
e 82 147
e 83 84
e 83 88
e 83 89
e 83 91
e 83 98
e 83 100
e 83 103
e 83 113
e 83 115
e 83 122
e 83 126
e 83 133
e 83 136
e 83 140
e 83 144
e 83 147
e 83 148
e 83 149
e 84 89
e 84 102
e 84 109
e 84 110
e 84 113
e 84 115
e 84 119
e 84 121
e 84 123
e 84 134
e 84 140
e 84 143
e 84 144
e 84 145
e 84 149
e 85 87
e 85 89
e 85 104
e 85 120
e 85 123
e 85 128
e 85 143
e 85 144
e 85 146
e 86 90
e 86 93
e 86 96
e 86 101
e 86 102
e 86 105
e 86 116
e 86 118
e 86 120
e 86 123
e 86 129
e 86 136
e 86 143
e 86 146
e 86 147
e 87 93
e 87 116
e 87 131
e 87 135
e 87 136
e 87 143
e 87 145
e 87 146
e 87 150
e 88 90
e 88 92
e 88 94
e 88 95
e 88 105
e 88 107
e 88 119
e 88 122
e 88 124
e 88 129
e 88 137
e 88 138
e 88 144
e 88 149
e 88 150
e 89 103
e 89 107
e 89 116
e 89 117
e 89 119
e 89 121
e 89 123
e 89 127
e 89 128
e 89 141
e 89 144
e 89 150
e 90 96
e 90 103
e 90 111
e 90 112
e 90 119
e 90 136
e 90 137
e 90 143
e 90 149
e 91 101
e 91 110
e 91 117
e 91 119
e 91 120
e 91 123
e 91 124
e 91 131
e 91 136
e 91 143
e 91 146
e 92 93
e 92 96
e 92 98
e 92 100
e 92 107
e 92 113
e 92 127
e 92 129
e 92 130
e 92 145
e 93 99
e 93 113
e 93 116
e 93 117
e 93 119
e 93 120
e 93 148
e 93 149
e 94 98
e 94 105
e 94 106
e 94 112
e 94 117
e 94 119
e 94 128
e 94 136
e 94 141
e 94 150
e 95 100
e 95 102
e 95 104
e 95 106
e 95 110
e 95 123
e 95 140
e 95 145
e 96 98
e 96 115
e 96 122
e 96 132
e 96 136
e 96 138
e 97 99
e 97 100
e 97 105
e 97 108
e 97 113
e 97 114
e 97 117
e 97 118
e 97 126
e 97 128
e 97 130
e 97 132
e 97 135
e 97 137
e 97 140
e 98 101
e 98 106
e 98 117
e 98 123
e 98 130
e 98 144
e 98 147
e 99 102
e 99 105
e 99 106
e 99 115
e 99 118
e 99 120
e 99 149
e 100 108
e 100 109
e 100 119
e 100 122
e 100 124
e 100 126
e 100 132
e 100 139
e 100 140
e 101 105
e 101 111
e 101 112
e 101 115
e 101 124
e 101 128
e 101 146
e 101 149
e 102 104
e 102 106
e 102 107
e 102 114
e 102 117
e 102 126
e 102 129
e 102 133
e 102 136
e 102 137
e 102 149
e 102 150
e 103 110
e 103 111
e 103 112
e 103 117
e 103 122
e 103 138
e 103 144
e 103 149
e 104 109
e 104 112
e 104 113
e 104 114
e 104 124
e 104 130
e 104 136
e 104 137
e 104 142
e 104 150
e 105 120
e 105 125
e 105 129
e 105 135
e 105 142
e 105 144
e 105 145
e 105 146
e 105 148
e 106 113
e 106 121
e 106 122
e 106 126
e 106 128
e 106 132
e 106 135
e 106 137
e 106 139
e 106 146
e 107 109
e 107 124
e 107 126
e 107 128
e 107 130
e 107 135
e 107 138
e 108 121
e 108 130
e 108 131
e 108 132
e 108 137
e 108 142
e 108 145
e 108 147
e 108 148
e 109 112
e 109 117
e 109 124
e 109 125
e 109 128
e 109 130
e 109 133
e 109 137
e 109 139
e 109 144
e 109 148
e 110 112
e 110 113
e 110 118
e 110 121
e 110 128
e 110 135
e 110 136
e 110 141
e 110 142
e 110 149
e 111 131
e 111 138
e 111 140
e 111 147
e 112 114
e 112 117
e 112 120
e 112 128
e 112 129
e 112 134
e 112 148
e 113 116
e 113 119
e 113 127
e 113 131
e 113 134
e 113 138
e 113 141
e 113 149
e 114 117
e 114 121
e 114 126
e 114 131
e 114 135
e 114 136
e 114 143
e 114 144
e 115 116
e 115 122
e 115 125
e 115 127
e 115 130
e 115 131
e 115 133
e 115 140
e 115 141
e 115 142
e 115 143
e 116 120
e 116 128
e 116 130
e 116 136
e 116 145
e 116 147
e 117 128
e 117 138
e 117 143
e 118 127
e 118 132
e 118 146
e 118 149
e 119 122
e 119 133
e 119 134
e 119 136
e 119 137
e 119 142
e 120 123
e 120 125
e 120 131
e 120 133
e 120 142
e 120 144
e 120 150
e 121 127
e 121 128
e 121 149
e 121 150
e 122 123
e 122 126
e 122 127
e 122 128
e 122 133
e 122 140
e 122 145
e 123 128
e 123 129
e 123 131
e 123 132
e 123 133
e 123 140
e 123 144
e 124 125
e 124 139
e 124 143
e 124 148
e 124 150
e 125 127
e 125 128
e 125 131
e 125 134
e 125 136
e 125 140
e 125 149
e 126 127
e 126 130
e 126 133
e 126 139
e 126 142
e 126 144
e 126 150
e 127 132
e 127 134
e 127 135
e 127 140
e 127 143
e 127 150
e 128 129
e 128 138
e 129 133
e 129 150
e 130 135
e 130 136
e 130 142
e 131 137
e 131 145
e 132 133
e 132 138
e 132 139
e 132 147
e 132 149
e 133 137
e 133 145
e 133 147
e 133 148
e 134 136
e 134 138
e 134 140
e 134 141
e 134 142
e 134 145
e 135 142
e 135 149
e 136 138
e 136 139
e 136 148
e 137 138
e 137 142
e 137 144
e 137 145
e 137 148
e 137 149
e 138 142
e 138 146
e 138 147
e 138 148
e 139 140
e 139 144
e 139 147
e 139 149
e 141 145
e 141 147
e 141 148
e 142 148
e 143 147
e 143 149
e 144 147
e 144 148
e 146 150
e 147 148
e 147 149
e 147 150
e 148 149
